param set_len = 34;
param target_sum = 10962045177;
param values := [1] 961234842 [2] 679941117 [3] 125329445 [4] 333265541 [5] 641074125 [6] 24831031 [7] 205628413 [8] 564432985 [9] 572135413 [10] 970873323 [11] 473805754 [12] 557460952 [13] 385282289 [14] 839855252 [15] 878235588 [16] 783930219 [17] 799954549 [18] 637223901 [19] 516939646 [20] 1009009036 [21] 323272919 [22] 701872006 [23] 1035125972 [24] 1040103744 [25] 535029039 [26] 222864347 [27] 432212811 [28] 530155121 [29] 448199304 [30] 970508070 [31] 544954459 [32] 614265887 [33] 459511723 [34] 769277626 ;
